This is Ipopt version 3.10.1, running with linear solver mumps.

Number of nonzeros in equality constraint Jacobian...:      177
Number of nonzeros in inequality constraint Jacobian.:        0
Number of nonzeros in Lagrangian Hessian.............:     3324

Total number of variables............................:       90
                     variables with only lower bounds:        0
                variables with lower and upper bounds:       90
                     variables with only upper bounds:        0
Total number of equality constraints.................:       59
Total number of inequality constraints...............:        0
        inequality constraints with only lower bounds:        0
   inequality constraints with lower and upper bounds:        0
        inequality constraints with only upper bounds:        0

iter    objective    inf_pr   inf_du lg(mu)  ||d||  lg(rg) alpha_du alpha_pr  ls
   0 -6.2018722e-04 1.00e-10 3.60e-04  -1.0 0.00e+00    -  0.00e+00 0.00e+00   0
   1 -5.8773371e-04 1.67e-10 2.99e-06  -1.7 1.86e-02    -  1.00e+00 1.00e+00f  1
   2 -5.2169086e-04 4.00e-15 1.50e-05  -2.5 4.26e-02    -  1.00e+00 1.00e+00f  1
   3 -5.3045669e-04 4.27e-12 2.60e-06  -3.8 2.75e-02    -  1.00e+00 1.00e+00f  1
   4 -2.3237079e-04 9.60e-13 1.72e-03  -5.7 3.76e-01    -  4.31e-01 7.75e-01h  1
   5 -2.2470906e-04 9.55e-13 1.72e-03  -5.7 8.28e-01  -4.0 1.14e-01 5.49e-03f  7
   6 -8.3094956e-04 9.45e-13 2.47e-03  -5.7 3.33e+01    -  1.81e-02 1.11e-02f  1
   7 -1.1091792e-03 1.33e-15 6.07e-04  -5.7 3.23e-02  -1.8 9.51e-01 1.00e+00f  1
   8 -1.2779367e-03 8.88e-16 7.09e-04  -5.7 1.51e-02  -1.3 1.00e+00 1.00e+00f  1
   9 -2.3424469e-03 2.22e-16 1.66e-03  -5.7 8.68e-02  -1.8 1.00e+00 7.67e-01f  1
iter    objective    inf_pr   inf_du lg(mu)  ||d||  lg(rg) alpha_du alpha_pr  ls
  10 -2.8803000e-03 2.82e-13 1.90e-03  -5.7 5.02e-02  -1.4 1.00e+00 4.49e-01f  1
  11 -3.3655898e-03 2.22e-16 1.98e-03  -5.7 1.78e-02  -1.0 1.00e+00 1.00e+00f  1
  12 -4.1261313e-03 3.26e-13 3.35e-03  -5.7 1.09e-01  -1.4 1.00e+00 2.08e-01f  1
  13 -4.1213168e-03 3.26e-13 2.57e-03  -5.7 2.64e-01  -1.9 5.90e-02 4.88e-04f 12
  14 -4.6316559e-03 5.33e-13 1.07e-02  -5.7 2.31e-01  -1.5 1.00e+00 6.43e-02f  1
  15 -4.6217056e-03 5.33e-13 1.05e-02  -5.7 3.61e-01  -2.0 1.16e-02 9.77e-04f 11
  16 -4.6175895e-03 5.33e-13 8.45e-03  -5.7 2.56e+00  -1.5 3.90e-02 7.94e-05f 13
  17 -6.2574572e-03 1.26e-12 3.10e-03  -5.7 3.95e-02  -1.1 1.00e+00 1.00e+00f  1
  18 -7.7714888e-03 1.25e-12 4.52e-02  -5.7 2.66e+00  -1.6 2.04e-01 1.13e-02f  1
  19 -9.3102493e-03 8.75e-13 8.50e-03  -5.7 8.44e-02  -1.2 1.00e+00 2.98e-01f  1
iter    objective    inf_pr   inf_du lg(mu)  ||d||  lg(rg) alpha_du alpha_pr  ls
  20 -1.0990975e-02 3.30e-12 4.83e-03  -5.7 2.75e-02  -0.7 1.00e+00 1.00e+00f  1
  21 -1.1554980e-02 3.15e-12 1.61e-02  -5.7 1.55e-01  -1.2 1.00e+00 5.22e-02f  1
  22 -1.3390227e-02 1.45e-12 5.90e-03  -5.7 4.02e-02  -0.8 1.00e+00 7.00e-01f  1
  23 -1.4283171e-02 1.72e-12 2.91e-02  -5.7 2.47e-01  -1.3 1.00e+00 4.43e-02f  1
  24 -1.7946413e-02 3.19e-14 7.40e-03  -5.7 5.15e-02  -0.8 1.00e+00 9.81e-01f  1
  25 -1.8864795e-02 4.99e-13 4.98e-02  -5.7 3.85e-01  -1.3 9.37e-01 2.99e-02f  1
  26 -2.0260213e-02 1.30e-12 1.11e-02  -5.7 5.84e-02  -0.9 1.00e+00 3.47e-01f  1
  27 -3.4951400e-02 1.28e-12 1.80e-02  -5.7 7.21e+00  -1.4 3.82e-02 1.94e-02f  1
  28 -3.7508189e-02 1.26e-12 2.62e-01  -5.7 1.25e+00  -1.0 8.29e-01 1.17e-02f  1
  29 -5.8145228e-02 2.22e-16 2.48e-02  -5.7 8.76e-02  -0.5 1.00e+00 1.00e+00f  1
iter    objective    inf_pr   inf_du lg(mu)  ||d||  lg(rg) alpha_du alpha_pr  ls
  30 -5.9701225e-02 1.20e-12 2.53e-02  -5.7 4.68e-02  -0.1 1.00e+00 1.04e-01f  1
  31 -7.8298658e-02 9.84e-13 1.32e-01  -5.7 2.91e-01  -0.6 1.00e+00 1.81e-01f  1
  32 -5.4717918e-02 7.48e-13 1.58e-01  -5.7 3.81e-01  -1.1 6.53e-03 2.41e-01h  1
  33 -5.4952565e-02 7.45e-13 1.22e-01  -5.7 2.10e-01  -0.6 1.00e+00 3.57e-03f  1
  34 -5.4949509e-02 7.45e-13 1.17e-01  -5.7 6.98e-01  -1.1 1.36e-02 1.96e-05f 16
  35 -5.4938806e-02 7.31e-13 1.05e-01  -5.7 8.03e+01  -0.7 1.51e-03 8.03e-07f 11
  36 -6.8193257e-02 2.22e-16 2.69e-02  -5.7 4.67e-02  -0.3 1.00e+00 1.00e+00F  1
  37 -7.8479696e-02 6.30e-12 3.20e-01  -5.7 5.22e-01  -0.7 1.00e+00 5.68e-02f  1
  38 -7.8363159e-02 6.29e-12 2.86e-01  -5.7 7.20e-01  -1.2 7.06e-02 1.64e-03h  5
  39 -8.5844612e-02 1.08e-11 3.02e-01  -5.7 2.65e+00  -0.8 1.98e-02 7.58e-03f  1
iter    objective    inf_pr   inf_du lg(mu)  ||d||  lg(rg) alpha_du alpha_pr  ls
  40 -1.0617885e-01 1.93e-11 5.33e-02  -5.7 1.16e-01  -0.4 1.00e+00 4.11e-01f  1
  41 -8.8106255e-02 1.81e-11 6.03e-02  -5.7 7.74e-01  -0.8 3.96e-02 6.09e-02h  4
  42 -9.0187762e-02 1.66e-11 5.11e-02  -5.7 1.17e+00  -1.3 1.03e-01 8.57e-02h  1
  43 -9.7460806e-02 6.71e-12 3.61e-02  -5.7 3.30e-02   0.0 1.00e+00 5.95e-01f  1
  44 -1.2873383e-01 2.31e-11 7.07e-02  -5.7 1.54e-01  -0.5 1.00e+00 4.32e-01f  1
  45 -1.2873262e-01 2.31e-11 5.51e-02  -5.7 4.71e-01  -0.9 2.60e-01 6.19e-06f 18
  46 -1.3453009e-01 2.24e-11 9.35e-02  -5.7 4.16e-01  -0.5 3.41e-01 3.10e-02f  1
  47 -1.6690894e-01 2.47e-11 6.34e-02  -5.7 7.37e-02  -0.1 1.00e+00 8.27e-01f  1
  48 -1.0897889e-01 2.46e-11 1.01e-01  -5.7 2.93e+01  -0.6 6.76e-04 4.21e-03h  3
  49 -1.3053792e-01 2.22e-16 4.52e-02  -5.7 5.77e-02  -0.1 1.00e+00 1.00e+00F  1
iter    objective    inf_pr   inf_du lg(mu)  ||d||  lg(rg) alpha_du alpha_pr  ls
  50 -1.6534185e-01 1.93e-11 3.31e-01  -5.7 8.60e-01  -0.6 4.88e-01 7.76e-02f  1
  51 -1.8147149e-01 1.56e-11 1.45e-01  -5.7 1.34e-01  -0.2 1.00e+00 1.92e-01f  1
  52 -1.8766965e-01 1.07e-11 9.68e-02  -5.7 3.37e-02   0.2 3.39e-01 3.17e-01f  1
  53 -1.9999375e-01 1.73e-11 7.67e-02  -5.7 1.45e-01  -0.2 6.17e-02 1.36e-01f  1
  54 -2.0275134e-01 1.56e-11 9.94e-02  -5.7 4.26e-02   0.2 6.94e-01 9.93e-02f  1
  55 -2.3165286e-01 3.00e-11 2.14e-01  -5.7 2.06e-01  -0.3 1.00e+00 1.93e-01f  1
  56 -1.0889523e-01 1.62e-11 4.16e-01  -5.7 6.44e-01  -0.8 1.67e-02 4.61e-01h  1
  57 -1.1758211e-01 4.44e-16 4.99e-02  -5.7 4.66e-02  -0.3 8.80e-01 1.00e+00F  1
  58 -1.6781002e-01 2.64e-11 5.26e-02  -5.7 5.92e-01  -0.8 3.71e-01 2.45e-01f  1
  59 -1.7268700e-01 2.87e-11 1.88e-01  -5.7 1.94e-01  -0.4 1.00e+00 4.86e-02f  4
iter    objective    inf_pr   inf_du lg(mu)  ||d||  lg(rg) alpha_du alpha_pr  ls
  60 -2.0136810e-01 2.70e-11 5.61e-02  -5.7 4.95e-02   0.0 1.00e+00 1.00e+00f  1
  61 -2.4803541e-01 4.94e-11 4.66e-01  -5.7 4.41e-01  -0.4 9.63e-01 1.38e-01f  1
  62 -1.1899845e-01 1.86e-11 8.00e-01  -5.7 1.08e+00  -0.9 5.83e-04 6.23e-01h  1
  63 -1.1899039e-01 1.86e-11 6.88e-01  -5.7 1.35e+00  -0.5 1.78e-01 7.48e-05f  6
  64 -1.2210167e-01 1.84e-11 4.63e-01  -5.7 7.81e-01  -1.0 4.97e-01 1.18e-02f  1
  65 -1.2400983e-01 2.27e-11 4.13e-01  -5.7 9.14e-02  -0.5 2.61e-01 5.13e-02f  2
  66 -1.2439614e-01 2.46e-11 4.07e-01  -5.7 6.53e-02  -0.1 1.16e-01 1.63e-02f  4
  67 -1.2636031e-01 2.34e-11 3.88e-01  -5.7 1.01e-01  -0.6 7.79e-02 4.69e-02f  1
  68 -1.3210450e-01 2.26e-11 4.21e-01  -5.7 6.49e-01    -  4.14e-01 3.55e-02f  1
  69 -1.3444465e-01 2.13e-11 3.74e-01  -5.7 3.51e-01    -  2.99e-01 5.61e-02f  1
iter    objective    inf_pr   inf_du lg(mu)  ||d||  lg(rg) alpha_du alpha_pr  ls
  70 -1.4499095e-01 2.22e-16 1.47e-01  -5.7 3.35e-02  -0.2 3.95e-01 1.00e+00F  1
  71 -1.5584346e-01 1.51e-11 9.09e-02  -5.7 1.35e-01  -0.6 4.09e-01 3.03e-01f  1
  72 -1.5584780e-01 1.31e-11 9.36e-02  -5.7 3.27e-01    -  5.96e-01 1.34e-01f  2
  73 -1.4986418e-01 1.12e-11 7.12e-02  -5.7 2.90e-01  -1.1 2.86e-01 1.47e-01h  1
  74 -1.5161376e-01 8.87e-12 8.50e-02  -5.7 1.77e-01    -  3.57e-01 2.07e-01f  1
  75 -1.6122431e-01 1.64e-11 4.22e-02  -5.7 8.12e-02  -0.7 5.04e-01 6.81e-01f  1
  76 -1.6121345e-01 1.64e-11 8.37e-02  -5.7 1.43e-01    -  5.64e-01 9.62e-04f 11
  77 -1.5539245e-01 1.53e-13 1.69e-02  -5.7 1.42e-01    -  7.27e-01 9.91e-01h  1
  78 -1.5626770e-01 2.22e-16 8.95e-03  -5.7 4.18e-02  -1.2 7.81e-01 1.00e+00f  1
  79 -1.5829980e-01 2.22e-16 4.95e-03  -5.7 2.56e-02  -0.7 1.00e+00 1.00e+00f  1
iter    objective    inf_pr   inf_du lg(mu)  ||d||  lg(rg) alpha_du alpha_pr  ls
  80 -1.5952857e-01 2.01e-12 5.41e-03  -5.7 1.12e-02  -0.3 1.00e+00 1.00e+00f  1
  81 -1.6949224e-01 2.22e-16 1.20e-02  -5.7 6.03e-02  -0.8 1.00e+00 1.00e+00f  1
  82 -1.6151243e-01 2.22e-16 7.60e-02  -5.7 1.64e-01    -  9.01e-01 2.84e-01h  1
  83 -1.6427525e-01 2.22e-16 7.85e-03  -5.7 1.82e-02  -0.4 1.00e+00 1.00e+00F  1
  84 -1.5691920e-01 1.11e-16 4.58e-02  -5.7 1.19e-01    -  1.00e+00 5.00e-01h  2
  85 -1.5691922e-01 2.22e-16 1.81e-02  -5.7 5.19e-02  -0.8 6.43e-01 5.18e-06f 18
  86 -1.5699086e-01 2.22e-16 1.44e-02  -5.7 1.13e-01  -1.3 8.41e-01 7.12e-01h  1
  87 -1.5699087e-01 2.22e-16 2.20e-02  -5.7 1.55e-01  -0.9 2.37e-01 1.31e-06f 19
  88 -1.5698618e-01 2.22e-16 1.86e-02  -5.7 6.29e-02  -1.4 7.31e-01 9.23e-04f 10
  89 -1.5698618e-01 2.22e-16 3.72e-02  -5.7 4.25e-02  -1.9 1.00e+00 9.28e-07f 20
iter    objective    inf_pr   inf_du lg(mu)  ||d||  lg(rg) alpha_du alpha_pr  ls
  90 -1.5698618e-01 2.22e-16 2.19e-02  -5.7 3.91e-02  -2.3 1.00e+00 2.27e-13h 43
  91 -1.5698618e-01 2.22e-16 2.33e-02  -5.7 5.68e-03  -0.1 1.88e-02 3.58e-11f 33
  92 -1.5698235e-01 3.33e-16 5.86e-02  -5.7 4.37e-02    -  4.68e-04 1.33e-03f  2
  93 -1.5697707e-01 2.22e-16 7.26e-02  -5.7 3.42e-02    -  6.97e-03 1.86e-03f  4
  94 -1.5590924e-01 2.22e-16 2.41e-02  -5.7 3.78e-02    -  1.00e+00 5.00e-01h  2
  95 -1.5651310e-01 4.44e-16 3.23e-03  -5.7 1.17e-02  -0.6 1.00e+00 1.00e+00f  1
  96 -1.5686619e-01 2.22e-16 3.64e-03  -5.7 5.11e-03  -0.2 1.00e+00 1.00e+00F  1
  97 -1.5964204e-01 4.44e-16 7.00e-03  -5.7 2.65e-02  -0.6 1.00e+00 1.00e+00f  1
  98 -1.5551025e-01 4.44e-16 6.95e-03  -5.7 1.91e-01  -1.1 2.72e-01 3.09e-01H  1
  99 -1.5550548e-01 3.33e-16 7.40e-05  -5.7 1.34e-02    -  1.00e+00 1.00e+00f  1
iter    objective    inf_pr   inf_du lg(mu)  ||d||  lg(rg) alpha_du alpha_pr  ls
 100 -1.5550586e-01 2.22e-16 1.52e-08  -5.7 1.49e-04    -  1.00e+00 1.00e+00f  1
 101 -1.5561459e-01 2.22e-16 5.46e-06  -8.6 2.10e-04  -1.6 1.00e+00 1.00e+00f  1
 102 -1.5561458e-01 3.33e-15 3.68e-09  -8.6 7.49e-05    -  1.00e+00 1.00e+00h  1

Number of Iterations....: 102

                                   (scaled)                 (unscaled)
Objective...............:  -1.5561457512261431e-01   -1.5561457512261431e-01
Dual infeasibility......:   3.6791620805770554e-09    3.6791620805770554e-09
Constraint violation....:   3.3306690738754696e-15    3.3306690738754696e-15
Complementarity.........:   2.7533985012741443e-09    2.7533985012741443e-09
Overall NLP error.......:   3.6791620805770554e-09    3.6791620805770554e-09


Number of objective function evaluations             = 386
Number of objective gradient evaluations             = 103
Number of equality constraint evaluations            = 386
Number of inequality constraint evaluations          = 0
Number of equality constraint Jacobian evaluations   = 1
Number of inequality constraint Jacobian evaluations = 0
Number of Lagrangian Hessian evaluations             = 102
Total CPU secs in IPOPT (w/o function evaluations)   =      0.300
Total CPU secs in NLP function evaluations           =      4.030

EXIT: Optimal Solution Found.
